5 5
0 9 3 87 1 35 2 71 4 79
1 53 4 54 0 84 2 25 3 67
4 62 2 55 0 46 1 24 3 98
1 46 2 22 4 11 3 48 0 8
2 39 3 35 1 49 0 46 4 38
-1
0 1 5
0 1 5
0 4 5
0 2 5
0 1 2 3 5
-2
12 366
66 358
232 364
107 166
48 107 189 289

358 5
0 12 7 19 23
15 5 2 13 22
20 16 11 3 8
1 18 21 14 9
10 17 6 4 24
